NAME : 10_3_3_1_(42).dat
COMMENT : Henke, Speranza, Wäscher, 2015
TYPE : MCVRP
DIMENSION : 11
EDGE_WEIGHT_TYPE : DISTANCE_MATRIX
CAPACITY : 1000
VEHICLES : 3
PRODUCT TYPES : 3
COMPARTMENTS : 3
NODE_COORD_SECTION
1 50 50
2 55.02 58.64
3 6.84 65.98
4 76.88 48.94
5 71.29 83.33
6 19.08 94.32
7 73.78 8.85
8 74.01 63.52
9 49.31 88.19
10 84.26 66.54
11 63.14 54.72
DEMAND_SECTION
1 0 0 0
2 233 0 0
3 0 413 0
4 0 5 0
5 0 0 268
6 243 0 0
7 143 0 0
8 141 0 0
9 0 0 45
10 22 0 0
11 0 51 0
DEPOT_SECTION
1
EOF